; benchmark generated from python API
(set-info :status unknown)
(declare-fun syscall_stub_newfstatat_83_64 () (_ BitVec 64))
(declare-fun mem_c0000f45_79_992 () (_ BitVec 992))
(declare-fun mem_c0001010_98_32 () (_ BitVec 32))
(declare-fun mem_7fffffffffffffff_104_8 () (_ BitVec 8))
(declare-fun mem_8000000000000000_195_128 () (_ BitVec 128))
(assert
 (let ((?x47 ((_ extract 31 0) syscall_stub_newfstatat_83_64)))
 (let (($x52 (bvule ?x47 (_ bv4294963200 32))))
 (not $x52))))
(assert
 (let ((?x3699 ((_ extract 891 891) mem_c0000f45_79_992)))
 (= (_ bv0 1) ?x3699)))
(assert
 (let ((?x2189 ((_ extract 900 900) mem_c0000f45_79_992)))
 (= (_ bv0 1) ?x2189)))
(assert
 (let ((?x2374 ((_ extract 839 832) mem_c0000f45_79_992)))
 (= (_ bv255 8) ?x2374)))
(assert
 (let ((?x2364 ((_ extract 831 824) mem_c0000f45_79_992)))
 (= (_ bv255 8) ?x2364)))
(assert
 (let ((?x2349 ((_ extract 823 816) mem_c0000f45_79_992)))
 (= (_ bv255 8) ?x2349)))
(assert
 (let ((?x2357 ((_ extract 815 808) mem_c0000f45_79_992)))
 (= (_ bv255 8) ?x2357)))
(assert
 (let ((?x2362 ((_ extract 807 800) mem_c0000f45_79_992)))
 (= (_ bv255 8) ?x2362)))
(assert
 (let ((?x2363 ((_ extract 799 792) mem_c0000f45_79_992)))
 (= (_ bv255 8) ?x2363)))
(assert
 (let ((?x2346 ((_ extract 791 784) mem_c0000f45_79_992)))
 (= (_ bv255 8) ?x2346)))
(assert
 (let ((?x2345 ((_ extract 783 776) mem_c0000f45_79_992)))
 (= (_ bv127 8) ?x2345)))
(assert
 (let ((?x2427 ((_ extract 775 768) mem_c0000f45_79_992)))
 (let ((?x2419 ((_ extract 767 760) mem_c0000f45_79_992)))
 (let ((?x2429 ((_ extract 759 752) mem_c0000f45_79_992)))
 (let ((?x2417 ((_ extract 751 744) mem_c0000f45_79_992)))
 (let ((?x2410 ((_ extract 743 736) mem_c0000f45_79_992)))
 (let ((?x2411 ((_ extract 735 728) mem_c0000f45_79_992)))
 (let ((?x4124 (concat (concat ((_ extract 719 712) mem_c0000f45_79_992) ((_ extract 727 720) mem_c0000f45_79_992)) ?x2411)))
 (let ((?x3823 (concat (concat (concat (concat (concat ?x4124 ?x2410) ?x2417) ?x2429) ?x2419) ?x2427)))
 (let ((?x15099 (bvadd (_ bv9223372036854775808 64) ?x3823)))
 (let ((?x15111 ((_ extract 63 63) ?x15099)))
 (let (($x15093 (= (_ bv1 1) ?x15111)))
 (not $x15093)))))))))))))
(assert
 (let ((?x2401 ((_ extract 727 720) mem_c0000f45_79_992)))
 (let (($x17731 (= (_ bv255 8) ?x2401)))
 (let (($x17664 (not $x17731)))
 (let ((?x2411 ((_ extract 735 728) mem_c0000f45_79_992)))
 (let (($x17604 (= (_ bv255 8) ?x2411)))
 (let (($x17721 (not $x17604)))
 (let ((?x2417 ((_ extract 751 744) mem_c0000f45_79_992)))
 (let (($x17650 (= (_ bv255 8) ?x2417)))
 (let (($x17555 (not $x17650)))
 (let ((?x2410 ((_ extract 743 736) mem_c0000f45_79_992)))
 (let (($x17595 (= (_ bv255 8) ?x2410)))
 (let (($x17616 (not $x17595)))
 (let ((?x2419 ((_ extract 767 760) mem_c0000f45_79_992)))
 (let (($x17574 (= (_ bv255 8) ?x2419)))
 (let (($x17598 (not $x17574)))
 (let ((?x2429 ((_ extract 759 752) mem_c0000f45_79_992)))
 (let (($x17591 (= (_ bv255 8) ?x2429)))
 (let (($x17582 (not $x17591)))
 (let ((?x2400 ((_ extract 719 712) mem_c0000f45_79_992)))
 (let (($x58603 (= (_ bv127 8) ?x2400)))
 (let (($x56089 (not $x58603)))
 (let ((?x2427 ((_ extract 775 768) mem_c0000f45_79_992)))
 (let (($x52309 (= (_ bv255 8) ?x2427)))
 (let (($x57065 (not $x52309)))
 (let (($x57808 (or $x57065 $x56089 $x17582 $x17598 $x17616 $x17555 $x17721 $x17664)))
 (let (($x58601 (not $x57808)))
 (let ((?x3809 (concat (concat (concat (concat (concat ?x2400 ?x2401) ?x2411) ?x2410) ?x2417) ?x2429)))
 (let ((?x3823 (concat (concat ?x3809 ?x2419) ?x2427)))
 (let ((?x58194 (bvadd (_ bv9223372036854775809 64) ?x3823)))
 (let ((?x58113 ((_ extract 63 63) ?x58194)))
 (let (($x58125 (= (_ bv1 1) ?x58113)))
 (or $x58125 $x58601)))))))))))))))))))))))))))))))))
(assert
 (= (_ bv4294967295 32) mem_c0001010_98_32))
(assert
 (let (($x15106 (= (_ bv10 8) mem_7fffffffffffffff_104_8)))
 (not $x15106)))
(assert
 (let ((?x2374 ((_ extract 839 832) mem_c0000f45_79_992)))
 (let ((?x2364 ((_ extract 831 824) mem_c0000f45_79_992)))
 (let ((?x2349 ((_ extract 823 816) mem_c0000f45_79_992)))
 (let ((?x2357 ((_ extract 815 808) mem_c0000f45_79_992)))
 (let ((?x2362 ((_ extract 807 800) mem_c0000f45_79_992)))
 (let ((?x2363 ((_ extract 799 792) mem_c0000f45_79_992)))
 (let ((?x593 (concat (concat ((_ extract 783 776) mem_c0000f45_79_992) ((_ extract 791 784) mem_c0000f45_79_992)) ?x2363)))
 (let ((?x4215 (concat (concat (concat (concat ?x593 ?x2362) ?x2357) ?x2349) ?x2364)))
 (let ((?x3812 (concat ?x4215 ?x2374)))
 (let ((?x18391 (bvadd (_ bv1 64) ?x3812)))
 (= (_ bv9223372036854775808 64) ?x18391))))))))))))
(assert
 (let ((?x81645 ((_ extract 7 0) mem_8000000000000000_195_128)))
 (let (($x80216 (= (_ bv10 8) ?x81645)))
 (let ((?x80258 (ite $x80216 (_ bv1 1) (_ bv0 1))))
 (let ((?x81676 ((_ extract 15 8) mem_8000000000000000_195_128)))
 (let (($x81692 (= (_ bv10 8) ?x81676)))
 (let ((?x80307 (ite $x81692 (_ bv1 1) (_ bv0 1))))
 (let ((?x81707 ((_ extract 23 16) mem_8000000000000000_195_128)))
 (let (($x81702 (= (_ bv10 8) ?x81707)))
 (let ((?x80306 (ite $x81702 (_ bv1 1) (_ bv0 1))))
 (let ((?x81720 ((_ extract 31 24) mem_8000000000000000_195_128)))
 (let (($x81716 (= (_ bv10 8) ?x81720)))
 (let ((?x80399 (ite $x81716 (_ bv1 1) (_ bv0 1))))
 (let ((?x81734 ((_ extract 39 32) mem_8000000000000000_195_128)))
 (let (($x81729 (= (_ bv10 8) ?x81734)))
 (let ((?x80375 (ite $x81729 (_ bv1 1) (_ bv0 1))))
 (let ((?x80329 ((_ extract 47 40) mem_8000000000000000_195_128)))
 (let (($x81743 (= (_ bv10 8) ?x80329)))
 (let ((?x81703 (ite $x81743 (_ bv1 1) (_ bv0 1))))
 (let ((?x80240 ((_ extract 55 48) mem_8000000000000000_195_128)))
 (let (($x80352 (= (_ bv10 8) ?x80240)))
 (let ((?x81718 (ite $x80352 (_ bv1 1) (_ bv0 1))))
 (let ((?x80249 ((_ extract 63 56) mem_8000000000000000_195_128)))
 (let (($x80374 (= (_ bv10 8) ?x80249)))
 (let ((?x80370 (ite $x80374 (_ bv1 1) (_ bv0 1))))
 (let ((?x81079 ((_ extract 71 64) mem_8000000000000000_195_128)))
 (let (($x80355 (= (_ bv10 8) ?x81079)))
 (let ((?x80380 (ite $x80355 (_ bv1 1) (_ bv0 1))))
 (let ((?x80294 ((_ extract 79 72) mem_8000000000000000_195_128)))
 (let (($x80385 (= (_ bv10 8) ?x80294)))
 (let ((?x80345 (ite $x80385 (_ bv1 1) (_ bv0 1))))
 (let ((?x74206 ((_ extract 87 80) mem_8000000000000000_195_128)))
 (let (($x78076 (= (_ bv10 8) ?x74206)))
 (let ((?x80321 (ite $x78076 (_ bv1 1) (_ bv0 1))))
 (let ((?x84678 ((_ extract 95 88) mem_8000000000000000_195_128)))
 (let (($x73867 (= (_ bv10 8) ?x84678)))
 (let ((?x80381 (ite $x73867 (_ bv1 1) (_ bv0 1))))
 (let ((?x78032 ((_ extract 103 96) mem_8000000000000000_195_128)))
 (let (($x78096 (= (_ bv10 8) ?x78032)))
 (let ((?x81712 (ite $x78096 (_ bv1 1) (_ bv0 1))))
 (let ((?x78065 ((_ extract 111 104) mem_8000000000000000_195_128)))
 (let (($x78176 (= (_ bv10 8) ?x78065)))
 (let ((?x80265 (ite $x78176 (_ bv1 1) (_ bv0 1))))
 (let ((?x80326 ((_ extract 119 112) mem_8000000000000000_195_128)))
 (let (($x79637 (= (_ bv10 8) ?x80326)))
 (let ((?x80400 (ite $x79637 (_ bv1 1) (_ bv0 1))))
 (let ((?x80354 ((_ extract 127 120) mem_8000000000000000_195_128)))
 (let (($x78207 (= (_ bv10 8) ?x80354)))
 (let ((?x80291 (ite $x78207 (_ bv1 1) (_ bv0 1))))
 (let ((?x80382 (concat (concat (concat (concat (concat ?x80291 ?x80400) ?x80265) ?x81712) ?x80381) ?x80321)))
 (let ((?x80353 (concat (concat (concat (concat (concat ?x80382 ?x80345) ?x80380) ?x80370) ?x81718) ?x81703)))
 (let ((?x80348 (concat (concat (concat (concat (concat ?x80353 ?x80375) ?x80399) ?x80306) ?x80307) ?x80258)))
 (= (_ bv0 16) ?x80348)))))))))))))))))))))))))))))))))))))))))))))))))))))
(minimize mem_c0000f45_79_992)
(minimize mem_8000000000000000_195_128)
(maximize mem_8000000000000000_195_128)
(maximize syscall_stub_newfstatat_83_64)
(minimize mem_7fffffffffffffff_104_8)
(maximize mem_7fffffffffffffff_104_8)
(minimize mem_c0001010_98_32)
(maximize mem_c0001010_98_32)
(maximize mem_c0000f45_79_992)
(minimize syscall_stub_newfstatat_83_64)
(check-sat)
(get-objectives)
